tsp_instances/TSP20/instance8.tsp
NODE_COORD_SECTION
0 111 156
1 183 79
2 46 163
3 58 153
4 158 97
5 82 113
6 31 59
7 108 85
8 194 110
9 154 36
10 121 58
11 128 57
12 58 66
13 63 167
14 69 195
15 59 102
16 73 140
17 145 135
18 146 37
19 186 111
