tsp_instances/TSP20/instance8.opt.tour
TOUR_SECTION
1
15
14
3
4
17
6
16
7
13
8
11
12
19
10
2
9
20
5
18
-1